p cnf 151 126
-128 -122 -118 -113 -107 -102 -99 -91 -86 -80 -76 -73 -68 -60 -58 -52 -49 -43 -39 -34 -156 -27 -26 -22 -149 -147 -17 -142 -10 -8 -135 -133 -4 -3 0
-127 -122 -117 -109 -108 -102 -96 -92 -88 -82 -78 -72 -68 -62 -58 -53 -47 -45 -39 -34 -30 -153 -23 -21 -149 -131 -144 -14 -141 -12 -134 -5 -4 -3 0
-128 -123 -114 -113 -104 -103 -99 -90 -89 -84 -79 -74 -69 -60 -55 -50 -46 -45 -36 -35 -31 -156 -23 -22 -148 -147 -17 -139 -138 -9 -8 -133 -4 -3 0
-128 -123 -114 -113 -108 -103 -95 -90 -85 -84 -75 -70 -69 -64 -56 -50 -49 -45 -39 -34 -31 -5 -152 -23 -148 -18 -17 -146 -13 -141 -138 -133 -4 -2 0
-125 -121 -117 -111 -107 -103 -98 -93 -88 -82 -78 -72 -68 -62 -58 -53 -49 -44 -39 -35 -30 -155 -24 -21 -149 -131 -146 -17 -141 -12 -137 -5 -4 -3 0
-128 -119 -114 -113 -107 -102 -95 -94 -85 -80 -75 -74 -68 -62 -58 -52 -49 -43 -37 -35 -31 -156 -23 -21 -148 -146 -14 -141 -9 -134 -5 -4 -2 -129 0
-128 -123 -117 -112 -104 -100 -95 -93 -89 -84 -79 -73 -69 -60 -55 -50 -49 -44 -39 -35 -27 -155 -23 -148 -18 -144 -14 -12 -139 -137 -8 -133 -4 -3 0
-124 -123 -117 -111 -107 -102 -99 -90 -89 -80 -75 -70 -65 -60 -58 -52 -49 -43 -36 -32 -30 -156 -23 -21 -148 -147 -14 -13 -139 -138 -8 -4 -2 -129 0
-124 -123 -117 -113 -108 -100 -95 -90 -88 -82 -78 -72 -65 -64 -59 -54 -49 -41 -39 -34 -31 -156 -23 -148 -131 -18 -143 -14 -12 -139 -137 -5 -4 -3 0
-125 -122 -115 -112 -107 -101 -96 -91 -86 -84 -76 -73 -68 -61 -58 -51 -47 -45 -36 -35 -30 -155 -23 -21 -149 -146 -14 -141 -12 -8 -135 -133 -4 -3 0
-125 -122 -116 -110 -107 -102 -98 -92 -88 -83 -78 -71 -68 -61 -58 -52 -46 -42 -37 -35 -30 -155 -23 -21 -149 -131 -146 -14 -142 -12 -137 -5 -4 -3 0
-125 -122 -115 -109 -105 -103 -96 -92 -86 -81 -75 -71 -67 -61 -58 -51 -49 -41 -39 -33 -27 -153 -23 -21 -149 -146 -15 -142 -12 -137 -5 -4 -3 -129 0
-125 -122 -117 -111 -106 -102 -98 -92 -88 -82 -78 -71 -66 -62 -58 -52 -47 -43 -39 -33 -30 -155 -24 -150 -21 -131 -146 -14 -141 -12 -137 -5 -4 -3 0
-124 -123 -117 -109 -105 -100 -95 -91 -86 -81 -78 -72 -69 -60 -55 -50 -46 -42 -39 -35 -31 -155 -23 -22 -148 -143 -14 -11 -139 -135 -5 -4 -3 -129 0
-124 -123 -117 -111 -108 -103 -99 -90 -88 -82 -78 -72 -68 -62 -55 -50 -49 -43 -39 -34 -27 -152 -23 -148 -18 -143 -14 -13 -139 -137 -8 -4 -131 -2 0
-125 -122 -115 -112 -107 -103 -99 -92 -86 -83 -76 -73 -65 -63 -59 -53 -47 -45 -37 -35 -28 -26 -152 -132 -149 -19 -17 -144 -142 -12 -8 -135 -4 -3 0
-125 -122 -117 -111 -107 -102 -98 -93 -88 -82 -78 -72 -68 -62 -58 -52 -47 -45 -39 -35 -30 -155 -24 -150 -21 -131 -146 -17 -141 -12 -137 -8 -4 -3 0
-125 -120 -115 -110 -105 -102 -96 -92 -85 -83 -76 -72 -65 -61 -55 -53 -46 -44 -37 -35 -27 -154 -23 -149 -131 -18 -17 -144 -12 -140 -8 -135 -4 -3 0
-124 -123 -117 -113 -104 -100 -95 -90 -85 -84 -79 -74 -65 -60 -55 -50 -49 -45 -40 -35 -31 -156 -23 -22 -148 -147 -14 -139 -9 -8 -134 -133 -4 -2 0
-128 -123 -114 -113 -108 -100 -99 -90 -89 -80 -75 -74 -69 -64 -59 -54 -49 -45 -40 -35 -31 -156 -26 -148 -18 -17 -143 -13 -139 -138 -8 -4 -2 -129 0
-125 -122 -117 -111 -106 -103 -98 -92 -88 -82 -77 -72 -66 -62 -57 -52 -48 -43 -37 -34 -29 -155 -24 -150 -21 -131 -145 -14 -141 -12 -137 -5 -4 -3 0
-125 -122 -115 -112 -107 -101 -98 -92 -86 -83 -76 -73 -65 -61 -58 -52 -49 -44 -39 -35 -27 -153 -132 -23 -149 -18 -144 -14 -12 -140 -8 -135 -4 -3 0
-128 -123 -114 -113 -108 -103 -99 -90 -89 -80 -78 -72 -68 -62 -59 -54 -49 -43 -40 -32 -31 -156 -26 -148 -18 -17 -143 -142 -13 -138 -8 -133 -4 -2 0
-125 -120 -117 -111 -105 -103 -99 -92 -86 -83 -78 -72 -65 -64 -55 -53 -47 -41 -37 -34 -30 -155 -26 -149 -147 -18 -131 -14 -142 -12 -135 -5 -4 -3 0
-125 -122 -117 -112 -107 -101 -98 -90 -87 -83 -77 -73 -68 -60 -58 -50 -48 -44 -39 -35 -29 -153 -132 -23 -148 -19 -144 -14 -12 -139 -8 -135 -4 -3 0
-151 -4 157 0
-127 -122 -117 -112 -107 -102 -98 -92 -88 -83 -78 -72 -66 -63 -58 -52 -49 -43 -39 -34 -30 -157 -155 -23 -21 -131 -146 -14 -141 -12 -137 -8 -3 0
-125 -121 -115 -110 -107 -102 -98 -92 -88 -81 -78 -72 -68 -62 -58 -52 -49 -43 -39 -34 -134 -30 -157 -153 -24 -21 -144 -15 -141 -12 -6 -3 -129 0
-124 -119 -114 -113 -107 -102 -95 -94 -85 -84 -75 -70 -66 -60 -55 -50 -49 -43 -36 -32 -31 -157 -155 -26 -22 -143 -14 -142 -12 -137 -5 -131 -2 0
-125 -123 -117 -111 -107 -102 -98 -92 -85 -83 -76 -73 -68 -62 -58 -52 -49 -44 -39 -34 -30 -157 -155 -23 -21 -131 -146 -14 -141 -12 -137 -5 -3 0
-125 -122 -117 -112 -105 -101 -98 -91 -88 -83 -78 -73 -66 -61 -58 -51 -49 -44 -39 -35 -157 -27 -153 -23 -21 -144 -14 -12 -140 -137 -5 -132 -3 0
-124 -122 -117 -111 -107 -102 -98 -92 -88 -82 -78 -72 -68 -62 -58 -52 -47 -44 -39 -34 -157 -27 -155 -23 -21 -131 -143 -14 -141 -12 -137 -5 -3 0
-125 -122 -117 -112 -107 -103 -98 -93 -86 -81 -77 -72 -68 -62 -56 -53 -49 -43 -39 -34 -29 -157 -153 -24 -21 -131 -146 -14 -141 -12 -135 -5 -3 0
-125 -122 -117 -111 -107 -103 -98 -92 -88 -81 -78 -72 -66 -62 -58 -52 -47 -43 -37 -34 -29 -157 -153 -23 -21 -131 -146 -14 -141 -12 -137 -5 -3 0
-124 -123 -117 -111 -108 -100 -98 -92 -88 -82 -78 -74 -68 -62 -55 -50 -49 -43 -39 -34 -30 -157 -155 -23 -21 -147 -14 -142 -12 -134 -5 -2 -129 0
-125 -122 -115 -111 -107 -102 -96 -92 -86 -83 -76 -72 -68 -62 -58 -52 -49 -44 -39 -35 -30 -157 -155 -23 -21 -146 -14 -141 -12 -137 -5 -3 -130 0
-125 -123 -115 -112 -105 -103 -96 -94 -88 -83 -76 -73 -68 -63 -55 -53 -49 -44 -37 -35 -30 -157 -155 -26 -21 -146 -17 -142 -12 -137 -6 -132 -3 0
-125 -122 -116 -111 -107 -103 -97 -93 -88 -82 -78 -72 -68 -62 -56 -52 -49 -43 -39 -34 -30 -157 -155 -24 -21 -131 -145 -14 -141 -12 -136 -5 -3 0
-125 -123 -118 -113 -104 -103 -98 -94 -88 -84 -78 -72 -68 -64 -55 -54 -46 -45 -135 -36 -35 -157 -27 -26 -155 -22 -146 -17 -142 -9 -7 -132 -3 0
-128 -123 -118 -109 -107 -103 -99 -90 -89 -84 -79 -70 -68 -62 -59 -51 -46 -45 -40 -35 -30 -157 -156 -23 -21 -147 -14 -142 -9 -8 -134 -133 -2 0
-125 -120 -117 -111 -105 -101 -98 -91 -88 -83 -78 -72 -68 -62 -58 -52 -49 -9 -43 -39 -34 -31 -157 -155 -23 -21 -131 -146 -14 -141 -137 -5 -3 0
-124 -123 -114 -113 -104 -103 -96 -94 -85 -84 -75 -74 -65 -64 -55 -54 -46 -45 -36 -35 -157 -27 -26 -152 -18 -17 -143 -142 -12 -8 -134 -133 -3 0
-128 -123 -114 -113 -107 -102 -99 -90 -85 -80 -78 -72 -69 -60 -55 -50 -46 -45 -40 -32 -30 -157 -155 -5 -23 -147 -18 -14 -13 -142 -134 -133 -2 0
-124 -123 -117 -111 -104 -103 -99 -94 -89 -80 -78 -72 -68 -62 -56 -54 -49 -43 -36 -32 -31 -157 -156 -26 -21 -131 -146 -14 -141 -12 -137 -5 -3 0
-125 -122 -115 -112 -107 -103 -98 -93 -88 -82 -77 -73 -66 -63 -58 -53 -48 -44 -37 -35 -157 -28 -153 -24 -19 -144 -14 -142 -12 -135 -5 -132 -3 0
-125 -123 -117 -112 -107 -102 -98 -92 -85 -83 -76 -73 -68 -62 -58 -52 -49 -9 -44 -40 -35 -157 -27 -26 -155 -21 -131 -146 -14 -141 -137 -6 -3 0
-124 -123 -115 -113 -105 -101 -98 -92 -88 -83 -77 -73 -68 -63 -58 -53 -49 -44 -39 -35 -157 -27 -155 -23 -22 -146 -14 -13 -142 -8 -135 -133 -3 0
-125 -123 -117 -111 -104 -103 -98 -92 -85 -80 -78 -72 -66 -62 -58 -54 -49 -43 -40 -32 -30 -157 -155 -23 -21 -131 -146 -14 -141 -12 -137 -5 -3 0
-124 -123 -114 -109 -107 -102 -99 -94 -89 -80 -75 -74 -68 -62 -58 -52 -49 -45 -40 -32 -30 -157 -155 -5 -23 -21 -147 -14 -13 -139 -138 -133 -2 0
-124 -119 -114 -109 -107 -102 -98 -92 -85 -80 -75 -71 -68 -62 -58 -52 -49 -45 -40 -35 -30 -157 -155 -23 -21 -146 -14 -142 -12 -138 -5 -2 -129 0
-125 -122 -115 -112 -107 -101 -96 -92 -86 -82 -78 -71 -68 -63 -58 -52 -49 -9 -44 -39 -35 -30 -157 -153 -23 -21 -145 -14 -142 -137 -6 -132 -3 0
-128 -123 -118 -113 -107 -102 -98 -92 -85 -80 -79 -74 -68 -62 -58 -52 -46 -41 -39 -34 -157 -27 -26 -155 -21 -147 -14 -142 -12 -137 -5 -131 -2 0
-124 -123 -118 -109 -108 -100 -95 -94 -89 -80 -75 -70 -69 -64 -55 -54 -49 -41 -40 -32 -31 -157 -26 -152 -18 -143 -14 -12 -139 -138 -5 -2 -129 0
-124 -123 -118 -113 -104 -103 -95 -94 -85 -80 -79 -74 -68 -62 -55 -50 -46 -45 -40 -32 -157 -27 -26 -5 -152 -22 -147 -17 -139 -9 -134 -133 -2 0
-128 -123 -114 -113 -104 -103 -95 -94 -85 -84 -79 -74 -69 -64 -55 -54 -49 -45 -40 -35 -31 -157 -156 -26 -22 -147 -17 -142 -9 -8 -134 -133 -2 0
-124 -123 -117 -111 -105 -103 -98 -92 -88 -82 -75 -74 -69 -64 -55 -54 -49 -45 -39 -34 -30 -157 -155 -23 -18 -17 -143 -142 -13 -138 -8 -133 -3 0
-125 -123 -115 -113 -108 -103 -99 -94 -86 -84 -76 -74 -65 -64 -59 -54 -46 -45 -39 -35 -157 -27 -26 -152 -18 -17 -143 -142 -9 -8 -134 -133 -3 0
-125 -123 -117 -112 -107 -102 -95 -90 -88 -82 -78 -72 -68 -62 -58 -52 -49 -9 -43 -40 -32 -30 -157 -155 -23 -21 -131 -146 -14 -141 -137 -5 -3 0
-128 -123 -114 -113 -108 -103 -99 -94 -85 -84 -75 -74 -69 -64 -55 -54 -49 -45 -40 -35 -31 -157 -156 -26 -147 -18 -17 -142 -13 -138 -8 -133 -2 0
-125 -122 -115 -112 -105 -103 -98 -93 -86 -83 -76 -72 -66 -63 -58 -53 -47 -44 -39 -35 -29 -157 -26 -153 -21 -17 -144 -142 -12 -8 -135 -132 -3 0
-128 -123 -114 -113 -108 -100 -99 -90 -89 -84 -79 -70 -68 -62 -58 -52 -46 -41 -39 -34 -30 -157 -155 -23 -147 -18 -17 -142 -13 -138 -8 -2 -129 0
-124 -123 -117 -111 -104 -102 -98 -92 -88 -82 -78 -73 -68 -61 -55 -51 -49 -44 -36 -35 -30 -157 -155 -23 -21 -131 -146 -14 -141 -12 -137 -5 -3 0
-125 -122 -118 -110 -107 -102 -98 -92 -85 -84 -78 -71 -66 -60 -58 -52 -46 -9 -44 -36 -35 -157 -27 -155 -23 -21 -131 -146 -17 -142 -137 -6 -3 0
-125 -122 -117 -112 -107 -103 -98 -93 -88 -83 -77 -72 -66 -63 -58 -53 -47 -44 -37 -35 -157 -27 -153 -24 -19 -17 -144 -142 -12 -135 -6 -132 -3 0
-125 -122 -115 -110 -105 -103 -98 -93 -88 -83 -78 -71 -66 -63 -58 -53 -49 -42 -37 -35 -157 -28 -155 -24 -19 -144 -14 -13 -140 -137 -8 -133 -3 0
-124 -119 -115 -113 -107 -102 -98 -92 -86 -83 -76 -72 -68 -62 -58 -52 -49 -44 -39 -35 -30 -157 -155 -23 -21 -146 -14 -141 -9 -135 -6 -3 -130 0
-125 -123 -115 -113 -105 -103 -96 -92 -86 -84 -76 -74 -66 -64 -56 -53 -47 -45 -37 -35 -157 -28 -153 -24 -18 -17 -144 -142 -12 -8 -135 -133 -3 0
-124 -123 -114 -113 -104 -103 -99 -94 -89 -84 -79 -74 -65 -64 -59 -54 -49 -45 -9 -36 -35 -157 -27 -26 -152 -18 -17 -146 -141 -137 -8 -133 -2 0
-124 -123 -114 -109 -107 -102 -98 -92 -85 -80 -78 -72 -65 -60 -55 -54 -46 -45 -36 -35 -30 -157 -155 -5 -23 -22 -17 -143 -13 -139 -138 -133 -2 0
-124 -123 -114 -113 -104 -103 -99 -91 -85 -84 -75 -74 -69 -60 -58 -52 -49 -43 -36 -35 -157 -27 -152 -23 -22 -146 -17 -141 -9 -8 -134 -2 -129 0
-125 -123 -118 -113 -104 -103 -99 -94 -88 -82 -75 -74 -69 -64 -59 -54 -49 -43 -39 -34 -30 -157 -155 -5 -23 -21 -143 -14 -142 -12 -138 -133 -2 0
-128 -123 -118 -112 -108 -101 -96 -94 -85 -84 -78 -74 -65 -64 -56 -54 -49 -45 -37 -35 -157 -27 -26 -5 -152 -21 -17 -143 -142 -9 -134 -133 -3 0
-124 -123 -114 -110 -107 -102 -98 -92 -85 -83 -75 -73 -68 -62 -58 -52 -49 -44 -39 -35 -30 -157 -155 -23 -21 -146 -14 -141 -12 -135 -5 -132 -3 0
-125 -123 -115 -112 -107 -103 -98 -94 -86 -83 -78 -74 -68 -64 -58 -54 -49 -45 -8 -39 -35 -157 -27 -26 -155 -21 -146 -17 -142 -12 -136 -132 -3 0
-128 -123 -117 -111 -104 -103 -99 -94 -86 -84 -79 -74 -65 -64 -57 -54 -46 -45 -36 -35 -157 -156 -27 -26 -22 -147 -17 -142 -9 -8 -135 -133 -3 0
-125 -123 -114 -112 -108 -100 -96 -93 -86 -82 -75 -71 -68 -62 -58 -52 -49 -42 -39 -35 -31 -157 -156 -26 -18 -143 -14 -13 -142 -138 -6 -133 -3 0
-124 -123 -114 -113 -104 -103 -99 -94 -89 -84 -75 -74 -65 -64 -59 -54 -46 -45 -40 -35 -157 -156 -27 -26 -22 -17 -143 -142 -138 -9 -8 -133 -2 0
-128 -123 -118 -113 -108 -103 -99 -94 -89 -84 -75 -74 -68 -62 -59 -54 -49 -43 -40 -35 -157 -27 -26 -155 -21 -147 -17 -13 -139 -138 -8 -133 -3 0
-124 -123 -117 -111 -107 -102 -98 -92 -88 -82 -78 -72 -68 -62 -58 -52 -49 -43 -39 -34 -30 -157 -155 -23 -21 -146 -14 -141 -12 -137 -5 -131 -2 0
-124 -123 -117 -111 -108 -103 -98 -92 -88 -82 -75 -74 -68 -64 -56 -54 -49 -45 -39 -34 -30 -157 -155 -23 -131 -18 -17 -143 -142 -12 -137 -5 -3 0
-128 -123 -114 -113 -104 -103 -98 -92 -89 -80 -75 -74 -65 -60 -59 -54 -49 -45 -39 -34 -30 -157 -155 -23 -18 -17 -146 -13 -141 -8 -134 -2 -129 0
-125 -123 -117 -111 -107 -102 -98 -92 -88 -82 -78 -72 -68 -62 -58 -52 -49 -43 -39 -34 -30 -157 -155 -23 -21 -146 -14 -141 -12 -137 -5 -131 -2 0
-128 -120 -118 -109 -107 -101 -98 -92 -88 -81 -79 -72 -68 -63 -58 -52 -49 -44 -40 -35 -30 -157 -155 -26 -21 -146 -14 -12 -139 -137 -8 -3 -129 0
-128 -123 -118 -110 -105 -100 -98 -92 -88 -83 -78 -73 -65 -61 -58 -52 -49 -9 -41 -39 -34 -30 -157 -155 -23 -22 -146 -14 -141 -137 -5 -3 -129 0
-125 -123 -117 -111 -107 -102 -95 -94 -85 -83 -76 -73 -68 -62 -58 -52 -47 -45 -40 -135 -35 -30 -157 -155 -23 -21 -131 -146 -14 -141 -9 -7 -3 0
-125 -123 -118 -113 -108 -103 -99 -94 -89 -84 -79 -74 -65 -64 -59 -54 -49 -45 -40 -35 -157 -27 -26 -152 -131 -18 -17 -143 -142 -13 -137 -8 -3 0
-125 -122 -115 -110 -107 -103 -96 -91 -88 -81 -78 -71 -68 -62 -58 -53 -47 -44 -39 -35 -30 -157 -155 -24 -21 -144 -15 -12 -140 -137 -5 -3 -130 0
-125 -119 -118 -113 -104 -101 -95 -94 -85 -80 -75 -70 -68 -62 -55 -54 -49 -43 -36 -32 -30 -157 -155 -5 -23 -21 -147 -14 -141 -12 -134 -133 -3 0
-124 -123 -117 -109 -107 -103 -98 -92 -88 -83 -75 -71 -66 -60 -58 -52 -49 -43 -36 -34 -30 -157 -155 -23 -21 -146 -17 -141 -12 -137 -5 -3 -129 0
-124 -119 -115 -113 -104 -100 -95 -93 -86 -83 -76 -74 -68 -62 -58 -52 -46 -41 -39 -35 -157 -27 -155 -24 -21 -143 -14 -142 -9 -134 -5 -3 -129 0
-124 -123 -117 -111 -105 -103 -96 -94 -88 -82 -75 -74 -66 -64 -58 -54 -46 -45 -39 -34 -29 -157 -26 -153 -21 -131 -146 -17 -142 -12 -137 -5 -3 0
-124 -123 -118 -110 -104 -100 -95 -94 -89 -83 -79 -70 -65 -63 -59 -54 -46 -41 -36 -34 -30 -157 -155 -26 -22 -147 -14 -139 -9 -134 -5 -3 -129 0
-128 -123 -117 -111 -108 -103 -99 -90 -88 -82 -78 -72 -68 -62 -55 -54 -49 -43 -40 -35 -157 -27 -26 -155 -18 -17 -143 -13 -139 -137 -8 -131 -2 0
-125 -123 -117 -112 -107 -102 -98 -92 -86 -83 -76 -73 -68 -62 -55 -53 -49 -44 -39 -35 -157 -27 -26 -155 -21 -144 -14 -142 -10 -135 -5 -132 -3 0
-124 -122 -118 -110 -107 -102 -99 -94 -89 -84 -78 -72 -69 -64 -55 -53 -49 -43 -39 -35 -157 -156 -27 -26 -5 -22 -143 -14 -142 -9 -134 -133 -3 0
-127 -123 -117 -112 -104 -103 -98 -94 -88 -83 -78 -73 -69 -64 -58 -54 -49 -44 -39 -35 -31 -157 -156 -26 -21 -147 -17 -142 -12 -137 -8 -132 -3 0
-124 -123 -114 -109 -107 -103 -98 -92 -88 -82 -79 -73 -68 -61 -58 -51 -46 -44 -39 -34 -30 -157 -155 -23 -21 -146 -14 -13 -141 -138 -8 -133 -3 0
-124 -123 -114 -113 -104 -100 -95 -94 -89 -84 -79 -74 -65 -64 -59 -54 -49 -45 -36 -35 -157 -27 -26 -152 -21 -146 -14 -13 -141 -138 -8 -133 -2 0
-125 -122 -115 -112 -105 -103 -96 -93 -86 -83 -76 -73 -66 -63 -56 -53 -47 -44 -37 -35 -157 -28 -26 -153 -21 -17 -144 -142 -12 -135 -6 -132 -3 0
-124 -123 -114 -113 -108 -103 -98 -92 -85 -80 -78 -72 -65 -64 -58 -52 -49 -9 -43 -39 -34 -30 -157 -155 -23 -21 -146 -14 -141 -137 -5 -131 -2 0
-128 -123 -118 -113 -104 -103 -99 -94 -89 -84 -79 -74 -65 -64 -55 -54 -46 -45 -40 -35 -157 -27 -26 -152 -22 -147 -17 -142 -138 -9 -8 -133 -2 0
-125 -123 -117 -111 -105 -103 -96 -94 -88 -82 -76 -74 -68 -64 -56 -54 -49 -44 -39 -34 -157 -28 -153 -24 -19 -131 -17 -144 -142 -12 -137 -5 -3 0
-128 -123 -117 -111 -107 -102 -98 -92 -88 -82 -78 -72 -68 -64 -59 -50 -49 -43 -39 -34 -30 -157 -155 -23 -21 -131 -146 -14 -141 -12 -137 -5 -3 0
-125 -122 -115 -113 -107 -103 -98 -93 -88 -83 -76 -73 -68 -63 -58 -53 -49 -44 -39 -35 -30 -157 -155 -26 -18 -17 -144 -142 -13 -137 -8 -132 -3 0
-125 -122 -117 -112 -105 -102 -98 -92 -88 -82 -78 -72 -68 -62 -56 -53 -49 -43 -39 -34 -30 -157 -155 -23 -21 -144 -14 -141 -12 -137 -5 -132 -3 0
-124 -123 -118 -109 -108 -103 -98 -92 -88 -82 -75 -74 -68 -62 -59 -54 -46 -45 -39 -34 -30 -157 -155 -23 -18 -17 -143 -13 -139 -138 -5 -2 -129 0
-125 -119 -114 -113 -104 -100 -95 -91 -89 -84 -75 -73 -66 -60 -59 -54 -46 -41 -40 -32 -31 -157 -156 -5 -24 -21 -144 -14 -13 -139 -134 -133 -3 0
-124 -123 -117 -111 -107 -102 -98 -92 -88 -82 -78 -72 -68 -62 -55 -54 -49 -43 -40 -35 -30 -157 -155 -23 -22 -147 -17 -12 -139 -137 -5 -131 -2 0
-128 -123 -117 -111 -108 -103 -98 -92 -88 -82 -75 -70 -68 -62 -55 -50 -49 -43 -39 -34 -31 -157 -155 -26 -22 -147 -17 -12 -139 -137 -5 -131 -2 0
-128 -123 -117 -111 -107 -102 -98 -92 -88 -82 -78 -72 -68 -62 -58 -52 -49 -43 -39 -34 -30 -157 -155 -23 -21 -146 -14 -141 -12 -137 -5 -131 -2 0
-124 -123 -114 -109 -108 -100 -95 -94 -85 -82 -75 -70 -65 -63 -59 -54 -49 -41 -39 -34 -157 -28 -155 -26 -22 -147 -17 -142 -9 -134 -5 -3 -129 0
-124 -119 -114 -109 -104 -103 -98 -92 -86 -83 -75 -73 -68 -62 -58 -52 -46 -42 -39 -35 -157 -27 -26 -155 -21 -143 -14 -142 -9 -8 -134 -133 -3 0
-128 -123 -114 -113 -108 -103 -99 -94 -85 -84 -79 -74 -65 -64 -55 -54 -49 -45 -40 -35 -31 -157 -26 -152 -22 -147 -17 -142 -9 -8 -134 -133 -2 0
-125 -122 -116 -111 -107 -103 -98 -92 -86 -81 -76 -72 -66 -62 -58 -52 -47 -43 -39 -35 -157 -28 -155 -23 -19 -146 -131 -14 -141 -12 -137 -5 -3 0
-125 -122 -117 -112 -107 -103 -98 -93 -88 -84 -78 -73 -68 -63 -58 -53 -49 -44 -36 -35 -30 -157 -156 -26 -21 -146 -17 -142 -12 -137 -8 -132 -3 0
-128 -123 -114 -109 -104 -103 -98 -92 -89 -84 -75 -74 -68 -62 -55 -54 -49 -45 -36 -32 -157 -27 -26 -155 -21 -147 -14 -13 -139 -138 -8 -3 -129 0
-125 -122 -117 -112 -107 -103 -98 -93 -86 -83 -76 -73 -68 -63 -55 -53 -49 -44 -39 -35 -31 -157 -155 -26 -21 -146 -17 -142 -12 -136 -5 -132 -3 0
-125 -122 -117 -111 -107 -102 -98 -92 -88 -82 -78 -72 -68 -62 -58 -52 -49 -43 -37 -34 -157 -28 -155 -23 -21 -131 -146 -14 -141 -12 -137 -5 -3 0
-125 -122 -117 -111 -107 -102 -96 -92 -86 -83 -78 -73 -69 -62 -55 -50 -46 -44 -39 -35 -31 -157 -155 -23 -131 -18 -146 -14 -141 -9 -136 -5 -3 0
-125 -122 -117 -112 -104 -103 -96 -94 -88 -83 -78 -73 -69 -63 -58 -53 -47 -44 -37 -35 -30 -157 -156 -26 -21 -146 -17 -142 -12 -137 -8 -132 -3 0
-127 -123 -118 -113 -104 -103 -99 -94 -89 -84 -78 -72 -69 -64 -59 -54 -49 -45 -36 -35 -31 -157 -156 -26 -22 -147 -17 -140 -9 -8 -135 -133 -3 0
-125 -123 -115 -113 -107 -103 -98 -93 -85 -84 -75 -74 -66 -64 -58 -54 -49 -45 -37 -35 -157 -28 -26 -153 -21 -147 -17 -142 -9 -8 -135 -133 -3 0
-125 -123 -115 -111 -104 -103 -98 -92 -86 -84 -78 -72 -66 -62 -58 -52 -49 -43 -39 -34 -30 -157 -153 -23 -21 -146 -14 -141 -10 -137 -5 -3 -129 0
-128 -123 -118 -109 -104 -103 -99 -90 -88 -82 -78 -72 -68 -62 -55 -54 -46 -45 -9 -39 -34 -31 -157 -155 -23 -18 -17 -146 -142 -137 -5 -131 -2 0
-125 -122 -117 -113 -105 -101 -98 -93 -88 -83 -78 -72 -66 -63 -58 -53 -47 -44 -37 -35 -157 -28 -153 -24 -21 -131 -146 -14 -141 -12 -137 -5 -3 0
-125 -122 -117 -111 -107 -102 -98 -92 -88 -82 -78 -72 -66 -62 -56 -52 -47 -42 -39 -34 -30 -157 -155 -23 -22 -131 -146 -14 -13 -141 -137 -8 -3 0
